
Gurobi 9.5.0 (linux64) logging started Tue Nov  7 13:30:02 2023

Set parameter LogFile to value "/lustre1/scratch/348/vsc34888/JointResearch/05.Models/06.Benchmarking/E.Representative_days_based_on_Line_Benefits_OptModel/9n_ByStages_nc50/openStarNet_9n_ByStages_nc50.log"
Set parameter Method to value 2
Set parameter MIPFocus to value 1
Set parameter Presolve to value 2
Set parameter RINS to value 100
Set parameter MIPGap to value 0.01
Set parameter Threads to value 36
Set parameter TimeLimit to value 604800
Set parameter IterationLimit to value 760000000
Gurobi Optimizer version 9.5.0 build v9.5.0rc5 (linux64)
Thread count: 36 physical cores, 36 logical processors, using up to 36 threads
Optimize a model with 13103 rows, 6948 columns and 40802 nonzeros
Model fingerprint: 0xd616e40d
Variable types: 6912 continuous, 36 integer (36 binary)
Coefficient statistics:
  Matrix range     [9e-04, 2e+03]
  Objective range  [1e+00, 1e+00]
  Bounds range     [8e-04, 2e+00]
  RHS range        [8e-04, 1e+00]
Presolve removed 4253 rows and 2154 columns
Presolve time: 0.06s
Presolved: 8850 rows, 4794 columns, 31308 nonzeros
Variable types: 4758 continuous, 36 integer (36 binary)
Found heuristic solution: objective 846.9633576
Root relaxation presolved: 8850 rows, 4794 columns, 31308 nonzeros

Root barrier log...

Ordering time: 0.00s

Barrier statistics:
 Dense cols : 36
 AA' NZ     : 1.191e+05
 Factor NZ  : 2.388e+05 (roughly 7 MB of memory)
 Factor Ops : 9.771e+06 (less than 1 second per iteration)
 Threads    : 36

                  Objective                Residual
Iter       Primal          Dual         Primal    Dual     Compl     Time
   0   3.60973595e+05 -5.51281821e+07  6.17e+00 5.21e+02  9.42e+03     0s
   1   4.88914986e+04 -1.55929755e+07  6.76e-01 1.93e-09  1.22e+03     0s
   2   1.46729833e+04 -2.10494278e+06  4.44e-03 1.07e-09  1.22e+02     0s
   3   7.12932894e+03 -3.90577919e+04  3.79e-13 2.01e-11  2.66e+00     0s
   4   9.08366076e+02 -9.46786032e+03  4.59e-13 4.37e-12  5.97e-01     0s
   5   5.80540901e+02 -3.21310814e+03  2.15e-13 1.82e-12  2.18e-01     0s
   6   4.07812397e+02 -1.09245091e+03  1.95e-13 1.82e-12  8.63e-02     0s
   7   2.93438134e+02 -5.35404781e+02  1.60e-13 1.82e-12  4.77e-02     0s
   8   1.78782890e+02 -1.89391277e+02  2.32e-13 3.64e-12  2.12e-02     0s
   9   1.23588774e+02  2.24694731e+01  2.65e-13 1.82e-12  5.82e-03     0s
  10   1.04382726e+02  7.42222048e+01  1.56e-12 1.82e-12  1.73e-03     0s
  11   9.68070181e+01  8.05962190e+01  2.61e-12 9.09e-13  9.32e-04     0s
  12   9.39544420e+01  8.44604458e+01  1.92e-12 9.09e-13  5.46e-04     0s
  13   9.16044046e+01  8.94186824e+01  1.48e-12 1.82e-12  1.26e-04     0s
  14   9.13156619e+01  9.11665183e+01  7.12e-12 1.82e-12  8.58e-06     0s
  15   9.12397928e+01  9.11750877e+01  3.00e-10 1.82e-12  3.72e-06     0s
  16   9.11929440e+01  9.11916986e+01  5.64e-11 1.82e-12  7.16e-08     0s
  17   9.11925090e+01  9.11925074e+01  5.59e-10 3.64e-12  9.00e-11     0s
  18   9.11925083e+01  9.11925083e+01  7.40e-10 1.82e-12  3.06e-15     0s

Barrier solved model in 18 iterations and 0.31 seconds (0.22 work units)
Optimal objective 9.11925083e+01


Root relaxation: objective 9.119251e+01, 426 iterations, 0.23 seconds (0.10 work units)

    Nodes    |    Current Node    |     Objective Bounds      |     Work
 Expl Unexpl |  Obj  Depth IntInf | Incumbent    BestBd   Gap | It/Node Time

     0     0   91.19251    0    6  846.96336   91.19251  89.2%     -    0s
H    0     0                     776.2780538   91.19251  88.3%     -    0s
H    0     0                     738.7695556   91.19251  87.7%     -    0s
H    0     0                      99.9576373   99.24197  0.72%     -    0s
     0     0   99.24197    0    2   99.95764   99.24197  0.72%     -    0s

Cutting planes:
  Gomory: 1
  Implied bound: 1
  MIR: 154

Explored 1 nodes (600 simplex iterations) in 0.47 seconds (0.31 work units)
Thread count was 36 (of 36 available processors)

Solution count 4: 99.9576 738.77 776.278 846.963 

Optimal solution found (tolerance 1.00e-02)
Best objective 9.995763732235e+01, best bound 9.924196953166e+01, gap 0.7160%

Gurobi 9.5.0 (linux64) logging started Tue Nov  7 13:30:04 2023

Set parameter LogFile to value "/lustre1/scratch/348/vsc34888/JointResearch/05.Models/06.Benchmarking/E.Representative_days_based_on_Line_Benefits_OptModel/9n_ByStages_nc50/openStarNet_9n_ByStages_nc50.log"
Set parameter Method to value 2
Set parameter MIPFocus to value 1
Set parameter Presolve to value 2
Set parameter RINS to value 100
Set parameter MIPGap to value 0.01
Set parameter Threads to value 36
Set parameter TimeLimit to value 604800
Set parameter IterationLimit to value 760000000
No parameters matching 'relax_integrality' found
Gurobi Optimizer version 9.5.0 build v9.5.0rc5 (linux64)
Thread count: 36 physical cores, 36 logical processors, using up to 36 threads
Optimize a model with 13103 rows, 6912 columns and 33566 nonzeros
Model fingerprint: 0xf82573e4
Coefficient statistics:
  Matrix range     [9e-04, 2e+03]
  Objective range  [1e+00, 1e+00]
  Bounds range     [8e-04, 2e+00]
  RHS range        [8e-04, 2e+01]
Presolve removed 11303 rows and 3804 columns
Presolve time: 0.01s
Presolved: 1800 rows, 3108 columns, 6858 nonzeros

Ordering time: 0.00s

Barrier statistics:
 AA' NZ     : 5.050e+03
 Factor NZ  : 1.850e+04 (roughly 2 MB of memory)
 Factor Ops : 2.279e+05 (less than 1 second per iteration)
 Threads    : 1

                  Objective                Residual
Iter       Primal          Dual         Primal    Dual     Compl     Time
   0   4.07792459e+05 -3.20947604e+07  4.10e+00 1.82e-12  1.12e+04     0s
   1   5.97325339e+04 -6.35932517e+06  4.32e-01 8.00e-12  1.33e+03     0s
   2   1.78310372e+04 -1.02511355e+06  1.62e-02 7.55e-12  1.58e+02     0s
   3   8.92598149e+03 -4.48517135e+04  3.11e-14 4.77e-12  7.89e+00     0s
   4   1.32206851e+03 -8.15574709e+03  1.05e-13 2.73e-12  1.39e+00     0s
   5   6.85610948e+02 -2.00751248e+03  7.99e-14 1.82e-12  3.95e-01     0s
   6   3.80149278e+02 -7.03315847e+02  7.55e-14 9.09e-13  1.59e-01     0s
   7   2.50862233e+02 -1.76848569e+02  5.42e-14 1.82e-12  6.28e-02     0s
   8   1.41542948e+02 -1.72147660e+01  2.24e-13 1.82e-12  2.33e-02     0s
   9   1.16292446e+02  7.01774521e+01  2.20e-13 3.64e-12  6.77e-03     0s
  10   1.04614402e+02  8.77121474e+01  1.51e-13 1.82e-12  2.48e-03     0s
  11   1.01199438e+02  9.52501650e+01  7.89e-13 1.82e-12  8.73e-04     0s
  12   1.00145029e+02  9.87935032e+01  2.43e-12 1.82e-12  1.98e-04     0s
  13   9.99743403e+01  9.99356567e+01  8.77e-13 3.64e-12  5.68e-06     0s
  14   9.99576569e+01  9.99576016e+01  1.78e-12 1.82e-12  8.10e-09     0s
  15   9.99576373e+01  9.99576373e+01  1.80e-12 1.82e-12  8.10e-12     0s

Barrier solved model in 15 iterations and 0.03 seconds (0.03 work units)
Optimal objective 9.99576373e+01

Crossover log...

     587 DPushes remaining with DInf 0.0000000e+00                 0s
       0 DPushes remaining with DInf 0.0000000e+00                 0s

      56 PPushes remaining with PInf 0.0000000e+00                 0s
       0 PPushes remaining with PInf 0.0000000e+00                 0s

  Push phase complete: Pinf 0.0000000e+00, Dinf 9.7499266e-14      0s

Iteration    Objective       Primal Inf.    Dual Inf.      Time
     110    9.9957637e+01   0.000000e+00   0.000000e+00      0s

Solved in 110 iterations and 0.04 seconds (0.03 work units)
Optimal objective  9.995763732e+01
